(set-logic QF_S)
(declare-fun _var_0xINPUT_137478_() String)
(declare-fun __woorpje_diseq_pref0_() String)
(declare-fun __woorpje_diseq_suf_l0_() String)
(declare-fun __woorpje_diseq_suf_r0_() String)
(assert (=(str.++  "EWefjc3x90" "")(str.++ __woorpje_diseq_pref0_  "c" __woorpje_diseq_suf_l0_  "")) )
(assert (=(str.++ _var_0xINPUT_137478_  "")(str.++ __woorpje_diseq_pref0_  "0" __woorpje_diseq_suf_r0_  "")) )
(check-sat)
